
Gurobi 8.1.1 (mac64, Python) logging started Wed Oct 23 18:15:14 2019

Academic license - for non-commercial use only
Optimize a model with 8 rows, 0 columns and 0 nonzeros
Coefficient statistics:
  Matrix range     [0e+00, 0e+00]
  Objective range  [0e+00, 0e+00]
  Bounds range     [0e+00, 0e+00]
  RHS range        [1e+00, 1e+00]
Presolve time: 0.02s

Solved in 0 iterations and 0.02 seconds
Infeasible model
Optimize a model with 8 rows, 16 columns and 32 nonzeros
Coefficient statistics:
  Matrix range     [1e+00, 1e+00]
  Objective range  [1e+00, 8e+00]
  Bounds range     [0e+00, 0e+00]
  RHS range        [1e+00, 1e+00]
Presolve removed 2 rows and 4 columns
Presolve time: 0.03s
Presolved: 6 rows, 12 columns, 24 nonzeros

Iteration    Objective       Primal Inf.    Dual Inf.      Time
       0    3.9920000e+00   1.503000e+00   0.000000e+00      0s
       3    8.0000000e+00   0.000000e+00   0.000000e+00      0s

Solved in 3 iterations and 0.05 seconds
Optimal objective  8.000000000e+00
